LibMLKEM/why3-cvc5/mlkem.adb_671_40_range_check_1.smt2
;; produced by cvc5.drv ;;
(set-logic ALL)
(set-info :smt-lib-version 2.6)
;;; generated by SMT-LIB2 driver
;;; SMT-LIB2 driver: bit-vectors, common part
;;; SMT-LIB2: integer arithmetic
;; "pow2"
(declare-fun pow2 (Int) Int)

(declare-const two_power_size_minus_one Int)

;; "two_power_size_minus_one_val"
(assert (= two_power_size_minus_one (pow2 (- 8 1))))

;; "min"
(define-fun min ((x Int) (y Int)) Int
  (ite (<= x y) x y))

;; "max"
(define-fun max ((x Int) (y Int)) Int
  (ite (<= x y) y x))

;; "Min_r"
(assert (forall ((x Int) (y Int)) (=> (<= y x) (= (min x y) y))))

;; "Max_l"
(assert (forall ((x Int) (y Int)) (=> (<= y x) (= (max x y) x))))

;; "Min_comm"
(assert (forall ((x Int) (y Int)) (= (min x y) (min y x))))

;; "Max_comm"
(assert (forall ((x Int) (y Int)) (= (max x y) (max y x))))

;; "Min_assoc"
(assert
  (forall ((x Int) (y Int) (z Int)) (= (min (min x y) z) (min x (min y z)))))

;; "Max_assoc"
(assert
  (forall ((x Int) (y Int) (z Int)) (= (max (max x y) z) (max x (max y z)))))

(declare-const two_power_size_minus_one1 Int)

;; "two_power_size_minus_one_val"
(assert (= two_power_size_minus_one1 (pow2 (- 16 1))))

(declare-sort t 0)

;; "in_range"
(define-fun in_range ((x (_ BitVec 16))) Bool
  (and (bvule #x0000 x) (bvule x #x0D00)))

;; "to_rep"
(declare-fun to_rep (t) (_ BitVec 16))

;; "of_rep"
(declare-fun of_rep ((_ BitVec 16)) t)

;; "inversion_axiom"
(assert
  (forall ((x t)) (! (= (of_rep (to_rep x)) x) :pattern ((to_rep x)) )))

;; "range_axiom"
(assert (forall ((x t)) (! (in_range (to_rep x)) :pattern ((to_rep x)) )))

;; "coerce_axiom"
(assert
  (forall ((x (_ BitVec 16)))
    (! (let ((y (bvurem x #x0D01)))
         (=> (in_range y) (= (to_rep (of_rep x)) y))) :pattern ((to_rep
                                                                  (of_rep x))) )))

(declare-sort map1 0)

;; "has_bounds"
(declare-fun has_bounds (map1
  Int
  Int) Bool)

;; "get"
(declare-fun get (map1
  Int) t)

(declare-const y map1)

;; "in_range"
(define-fun in_range1 ((x (_ BitVec 16))) Bool
  (and (bvule #x0000 x) (bvule x #x0001)))

;; "dynamic_invariant"
(define-fun dynamic_invariant ((temp___expr_1630 map1) (temp___is_init_1626 Bool) (temp___skip_constant_1627 Bool) (temp___do_toplevel_1628 Bool) (temp___do_typ_inv_1629 Bool)) Bool
  (and
    (=>
      (= temp___is_init_1626 true)
      (=>
        (= temp___do_toplevel_1628 true)
        (forall ((i Int))
          (=>
            (and (<= 0 i) (<= i 255))
            (in_range1 (to_rep (get temp___expr_1630 i)))))))
    (has_bounds temp___expr_1630 0 255)))

;; Goal "def'vc"
;; File "mlkem.adb", line 665, characters 0-0
(assert
  (not
  (forall ((r map1))
    (=>
      (dynamic_invariant y true false true true)
      (=>
        (has_bounds r 0 255)
        (forall ((i Int))
          (=>
            (= i 0)
            (=>
              (= (and (ite (<= 0 i) true false) (ite (<= i 255) true false)) true)
              (forall ((r1 map1) (i1 Int))
                (=>
                  (= (and (ite (and
                                 (has_bounds r1 0 255)
                                 (forall ((temp___4086 Int))
                                   (=>
                                     (and
                                       (<= 0 temp___4086)
                                       (<= temp___4086 255))
                                     (=>
                                       (or
                                         (< 255 temp___4086)
                                         (or
                                           (< temp___4086 0)
                                           (<= i1 temp___4086)))
                                       (= (get r1 temp___4086) (get
                                                                 r
                                                                 temp___4086))))))
                            true
                            false) (ite (and (<= 0 i1) (<= i1 255))
                                     true
                                     false)) true)
                  (forall ((o (_ BitVec 16)))
                    (=>
                      (= (to_rep (get y i1)) o)
                      (and
                        (bvule ((_ zero_extend 8) #x00) o)
                        (bvule o ((_ zero_extend 8) #x01)))))))))))))))

(check-sat)
